8314 6293 8475
7036 7154 8500
7980 6863 8187
7429 6721 8646
7095 7291 8358
6541 6416 8980
6207 6986 8692
6697 7664 8054
7008 6738 8722
8328 5640 8117
6569 6832 8758
6674 7308 8434
7145 5645 8999
6962 6399 8904
